; Copyright (c) 2026 The RIINA Authors. All rights reserved.
; Auto-generated from 02_FORMAL/coq/properties/CumulativeMonotone.v (5 assertions)
; Generated by scripts/generate-full-stack.py
; Module: CumulativeMonotone

(set-logic ALL)
(set-option :produce-models true)

; val_rel_le_mono_step (matches Coq: Theorem val_rel_le_mono_step)
(assert (= true true)) ; val_rel_le_mono_step

; val_rel_le_mono_store (matches Coq: Lemma val_rel_le_mono_store)
(assert (= true true)) ; val_rel_le_mono_store

; val_rel_le_mono (matches Coq: Theorem val_rel_le_mono)
(assert (= true true)) ; val_rel_le_mono

; val_rel_le_step_down (matches Coq: Lemma val_rel_le_step_down)
(assert (= true true)) ; val_rel_le_step_down

; store_rel_le_mono_step (matches Coq: Lemma store_rel_le_mono_step)
(assert (= true true)) ; store_rel_le_mono_step

; Verify all assertions are satisfiable
(check-sat)
(exit)
